1 -1 -2 0
1 3 -4 0
1 3 1 0
1 -5 2 0
1 -6 4 0
1 -2 -3 0
1 -7 8 0
1 7 3 0
1 7 -2 0
1 -4 -5 0
1 -9 6 0
1 -9 -3 0
1 -9 5 0
1 -10 11 0
1 -10 12 0
1 11 13 0
1 11 -12 0
1 -14 15 0
1 -14 2 0
1 -14 -16 0
1 -14 -17 0
1 -8 -15 0
1 -8 -18 0
1 -8 -19 0
1 -8 -17 0
1 12 11 0
1 -12 -20 0
1 -12 21 0
1 12 -22 0
1 15 23 0
1 15 -6 0
1 -15 -24 0
1 25 13 0
1 -25 8 0
1 -25 11 0
1 13 -26 0
1 -13 24 0
1 13 25 0
1 13 27 0
1 -13 14 0
1 -13 -5 0
1 -13 28 0
1 -21 15 0
1 -21 -29 0
1 -21 19 0
1 -30 -29 0
1 -20 -31 0
1 20 -12 0
1 -23 -29 0
1 23 -20 0
1 23 12 0
1 23 -19 0
1 -23 17 0
1 17 21 0
1 29 -21 0
1 19 24 0
1 -19 20 0
1 -19 -32 0
1 -18 -14 0
1 -18 -33 0
1 34 35 0
1 -36 -37 0
1 -36 38 0
1 -36 39 0
1 -36 -35 0
1 -36 40 0
1 -41 -42 0
1 -41 -43 0
1 35 -16 0
1 35 44 0
1 -39 45 0
1 39 -46 0
1 44 -47 0
1 44 -48 0
1 -44 -49 0
1 44 9 0
1 47 35 0
1 -16 48 0
1 16 -14 0
1 -42 -40 0
1 42 -41 0
1 -42 -50 0
1 42 49 0
1 42 51 0
1 48 -52 0
1 48 26 0
1 -48 53 0
1 48 -44 0
1 -48 34 0
1 40 -52 0
1 -40 -53 0
1 -40 -31 0
1 -40 34 0
1 38 34 0
1 49 42 0
1 49 -16 0
1 49 -54 0
1 -27 48 0
1 -27 4 0
1 53 -13 0
1 53 40 0
1 -53 -51 0
1 53 -7 0
1 -31 48 0
1 31 -50 0
1 31 25 0
1 31 -51 0
1 -31 -55 0
1 26 -25 0
1 -56 -57 0
1 56 27 0
1 -56 -58 0
1 55 59 0
1 -55 24 0
1 55 31 0
1 -50 52 0
1 50 60 0
1 -50 61 0
1 50 -16 0
1 50 62 0
1 -51 -52 0
1 -51 -26 0
1 51 -63 0
1 24 15 0
1 24 64 0
1 -28 -52 0
1 -28 18 0
1 -28 65 0
1 -28 25 0
1 -28 -64 0
1 -57 -66 0
1 57 -18 0
1 58 67 0
1 65 68 0
1 65 -69 0
1 -65 33 0
1 65 -58 0
1 68 -70 0
1 68 -69 0
1 68 -28 0
1 64 -70 0
1 -64 -57 0
1 64 -24 0
1 -64 -71 0
1 -72 59 0
1 -72 -65 0
1 72 -22 0
1 -72 33 0
1 -33 -63 0
1 -69 -73 0
1 69 74 0
1 69 65 0
1 -73 -66 0
1 73 -75 0
1 73 -69 0
1 22 76 0
1 75 -69 0
1 75 -58 0
1 67 72 0
1 67 -25 0
1 67 58 0
1 66 77 0
1 -66 -67 0
1 66 -73 0
1 -78 -22 0
1 76 -71 0
1 -76 79 0
1 -80 -81 0
1 79 78 0
1 79 74 0
1 79 -69 0
1 74 -80 0
1 -74 69 0
1 32 73 0
1 82 -80 0
1 82 -69 0
1 82 -76 0
1 61 83 0
1 -61 -48 0
1 61 -50 0
1 52 83 0
1 -52 43 0
1 52 49 0
1 -52 40 0
1 84 -85 0
1 -84 86 0
1 84 -87 0
1 84 54 0
1 -84 -51 0
1 -84 -62 0
1 -62 -83 0
1 62 -88 0
1 -62 -58 0
1 43 -52 0
1 -43 89 0
1 43 -62 0
1 87 89 0
1 -87 90 0
1 -87 63 0
1 83 -37 0
1 83 -84 0
1 46 52 0
1 -46 62 0
1 -59 43 0
1 59 91 0
1 -59 55 0
1 63 59 0
1 89 85 0
1 -89 60 0
1 -89 54 0
1 89 -88 0
1 -90 -85 0
1 -90 -60 0
1 90 -73 0
1 -86 88 0
1 86 89 0
1 -86 -84 0
1 -86 -62 0
1 88 -63 0
1 85 38 0
1 -85 -89 0
1 70 -60 0
1 70 -92 0
1 70 -91 0
1 -71 70 0
1 71 91 0
1 -71 67 0
1 71 76 0
1 -71 -93 0
1 71 64 0
1 -77 86 0
1 92 77 0
1 92 -56 0
1 92 71 0
1 92 -90 0
1 -94 77 0
1 -60 -89 0
1 60 95 0
1 -60 -90 0
1 -93 60 0
